
******************************************************************************
This program contains Ipopt, a library for large-scale nonlinear optimization.
 Ipopt is released as open source code under the Eclipse Public License (EPL).
         For more information visit http://projects.coin-or.org/Ipopt
******************************************************************************

This is Ipopt version 3.12.6, running with linear solver ma57.

Number of nonzeros in equality constraint Jacobian...:        0
Number of nonzeros in inequality constraint Jacobian.:        0
Number of nonzeros in Lagrangian Hessian.............:   299997

Total number of variables............................:   100000
                     variables with only lower bounds:        0
                variables with lower and upper bounds:        0
                     variables with only upper bounds:        0
Total number of equality constraints.................:        0
Total number of inequality constraints...............:        0
        inequality constraints with only lower bounds:        0
   inequality constraints with lower and upper bounds:        0
        inequality constraints with only upper bounds:        0

iter    objective    inf_pr   inf_du lg(mu)  ||d||  lg(rg) alpha_du alpha_pr  ls
   0  9.2072742e+04 0.00e+00 1.84e+00  -1.0 0.00e+00    -  0.00e+00 0.00e+00   0
   1  9.2072614e+04 0.00e+00 1.84e+00  -1.0 1.84e-06   6.0 1.00e+00 1.00e+00f  1
   2  9.2072233e+04 0.00e+00 1.84e+00  -1.0 5.52e-06   5.5 1.00e+00 1.00e+00f  1
   3  9.2071087e+04 0.00e+00 1.84e+00  -1.0 1.66e-05   5.0 1.00e+00 1.00e+00f  1
   4  9.2070658e+04 0.00e+00 1.84e+00  -1.0 6.21e-06   5.5 1.00e+00 1.00e+00f  1
   5  9.2069369e+04 0.00e+00 1.84e+00  -1.0 1.86e-05   5.0 1.00e+00 1.00e+00f  1
   6  9.2068886e+04 0.00e+00 1.84e+00  -1.0 6.99e-06   5.4 1.00e+00 1.00e+00f  1
   7  9.2067436e+04 0.00e+00 1.84e+00  -1.0 2.10e-05   4.9 1.00e+00 1.00e+00f  1
   8  9.2066893e+04 0.00e+00 1.84e+00  -1.0 7.87e-06   5.4 1.00e+00 1.00e+00f  1
   9  9.2066689e+04 0.00e+00 1.84e+00  -1.0 2.95e-06   5.8 1.00e+00 1.00e+00f  1
iter    objective    inf_pr   inf_du lg(mu)  ||d||  lg(rg) alpha_du alpha_pr  ls
  10  9.2066077e+04 0.00e+00 1.84e+00  -1.0 8.85e-06   5.3 1.00e+00 1.00e+00f  1
  11  9.2065848e+04 0.00e+00 1.84e+00  -1.0 3.32e-06   5.7 1.00e+00 1.00e+00f  1
  12  9.2065160e+04 0.00e+00 1.84e+00  -1.0 9.96e-06   5.3 1.00e+00 1.00e+00f  1
  13  9.2064902e+04 0.00e+00 1.84e+00  -1.0 3.73e-06   5.7 1.00e+00 1.00e+00f  1
  14  9.2064128e+04 0.00e+00 1.84e+00  -1.0 1.12e-05   5.2 1.00e+00 1.00e+00f  1
  15  9.2063838e+04 0.00e+00 1.84e+00  -1.0 4.20e-06   5.6 1.00e+00 1.00e+00f  1
  16  9.2062967e+04 0.00e+00 1.84e+00  -1.0 1.26e-05   5.2 1.00e+00 1.00e+00f  1
  17  9.2062640e+04 0.00e+00 1.84e+00  -1.0 4.72e-06   5.6 1.00e+00 1.00e+00f  1
  18  9.2061661e+04 0.00e+00 1.84e+00  -1.0 1.42e-05   5.1 1.00e+00 1.00e+00f  1
  19  9.2061293e+04 0.00e+00 1.84e+00  -1.0 5.32e-06   5.5 1.00e+00 1.00e+00f  1
iter    objective    inf_pr   inf_du lg(mu)  ||d||  lg(rg) alpha_du alpha_pr  ls
  20  9.2060190e+04 0.00e+00 7.44e+00  -1.0 6.44e-05   5.1 1.00e+00 1.00e+00f  1
  21  9.2059776e+04 0.00e+00 1.06e+01  -1.0 3.44e-05   5.5 1.00e+00 1.00e+00f  1
  22  9.2058489e+04 0.00e+00 6.34e+01  -1.0 6.18e-04   5.0 1.00e+00 1.00e+00f  1
  23  9.2057970e+04 0.00e+00 9.20e+01  -1.0 3.36e-04   5.4 1.00e+00 1.00e+00f  1
  24  9.2039724e+04 0.00e+00 1.19e+03  -1.0 1.31e-02   5.0 1.00e+00 1.00e+00f  1
  25  9.2016553e+04 0.00e+00 1.82e+03  -1.0 7.50e-03   5.4 1.00e+00 1.00e+00f  1
  26  9.2003684e+04 0.00e+00 2.10e+03  -1.0 3.23e-03   5.8 1.00e+00 1.00e+00f  1
  27  9.1915509e+04 0.00e+00 3.43e+03  -1.0 1.58e-02   5.3 1.00e+00 1.00e+00f  1
  28  9.1863563e+04 0.00e+00 4.01e+03  -1.0 6.95e-03   5.8 1.00e+00 1.00e+00f  1
  29  9.1452286e+04 0.00e+00 7.09e+03  -1.0 3.70e-02   5.3 1.00e+00 1.00e+00f  1
iter    objective    inf_pr   inf_du lg(mu)  ||d||  lg(rg) alpha_du alpha_pr  ls
  30  9.1195358e+04 0.00e+00 8.46e+03  -1.0 1.65e-02   5.7 1.00e+00 1.00e+00f  1
  31  8.8836362e+04 0.00e+00 1.61e+04  -1.0 9.56e-02   5.2 1.00e+00 1.00e+00f  1
  32  8.7318800e+04 0.00e+00 1.94e+04  -1.0 4.27e-02   5.7 1.00e+00 1.00e+00f  1
  33  7.3378123e+04 0.00e+00 3.50e+04  -1.0 2.51e-01   5.2 1.00e+00 1.00e+00f  1
  34  1.6620220e+04 0.00e+00 2.56e+04  -1.0 9.10e+00   4.7 1.00e+00 5.00e-01f  2
  35  7.9388742e+03 0.00e+00 1.76e+03  -1.0 3.07e-01   4.2 1.00e+00 1.00e+00f  1
  36  7.8795009e+03 0.00e+00 1.10e+02  -1.0 1.98e-02   3.8 1.00e+00 1.00e+00f  1
  37  7.8115246e+03 0.00e+00 3.35e+00  -1.0 1.81e-03   3.3 1.00e+00 1.00e+00f  1
  38  7.6081907e+03 0.00e+00 1.84e+00  -1.0 2.94e-03   2.8 1.00e+00 1.00e+00f  1
  39  6.9996951e+03 0.00e+00 1.83e+00  -1.0 8.81e-03   2.3 1.00e+00 1.00e+00f  1
iter    objective    inf_pr   inf_du lg(mu)  ||d||  lg(rg) alpha_du alpha_pr  ls
  40  5.1874389e+03 0.00e+00 1.82e+00  -1.0 2.62e-02   1.8 1.00e+00 1.00e+00f  1
  41 -1.3861965e+02 0.00e+00 1.78e+00  -1.0 7.70e-02   1.4 1.00e+00 1.00e+00f  1
  42 -1.5316355e+04 0.00e+00 1.66e+00  -1.0 2.17e-01   0.9 1.00e+00 1.00e+00f  1
  43 -5.7024809e+04 0.00e+00 1.39e+00  -1.0 5.51e-01   0.4 1.00e+00 1.00e+00f  1
  44 -1.7483098e+05 0.00e+00 1.11e+00  -1.0 1.31e+00  -0.1 1.00e+00 1.00e+00f  1
  45 -5.2444336e+05 0.00e+00 1.01e+00  -1.0 3.55e+00  -0.5 1.00e+00 1.00e+00f  1
  46 -7.8176237e+06 0.00e+00 2.63e+00  -1.0 3.31e+04    -  1.00e+00 1.00e+00f  1
  47 -8.1877472e+06 0.00e+00 1.18e+00  -1.0 1.24e+01  -1.0 1.00e+00 1.00e+00f  1
  48 -8.9450703e+06 0.00e+00 1.24e+00  -1.0 3.97e+01  -1.5 1.00e+00 1.00e+00f  1
  49 -9.7634439e+06 0.00e+00 6.09e-01  -1.0 1.69e+02  -2.0 1.00e+00 1.00e+00f  1
iter    objective    inf_pr   inf_du lg(mu)  ||d||  lg(rg) alpha_du alpha_pr  ls
  50 -1.0049885e+07 0.00e+00 2.49e-01  -1.7 1.04e+02    -  1.00e+00 1.00e+00f  1
  51 -1.0049999e+07 0.00e+00 1.68e-03  -1.7 1.51e+01    -  1.00e+00 1.00e+00f  1
  52 -1.0049999e+07 0.00e+00 1.66e-07  -3.8 1.08e-01    -  1.00e+00 1.00e+00f  1
  53 -1.0049999e+07 0.00e+00 9.93e-09  -8.6 1.98e-06    -  1.00e+00 1.00e+00f  1

Number of Iterations....: 53

                                   (scaled)                 (unscaled)
Objective...............:  -1.0049998777983636e+07   -1.0049998777983636e+07
Dual infeasibility......:   9.9287449497918943e-09    9.9287449497918943e-09
Constraint violation....:   0.0000000000000000e+00    0.0000000000000000e+00
Complementarity.........:   0.0000000000000000e+00    0.0000000000000000e+00
Overall NLP error.......:   9.9287449497918943e-09    9.9287449497918943e-09


Number of objective function evaluations             = 59
Number of objective gradient evaluations             = 54
Number of equality constraint evaluations            = 0
Number of inequality constraint evaluations          = 0
Number of equality constraint Jacobian evaluations   = 0
Number of inequality constraint Jacobian evaluations = 0
Number of Lagrangian Hessian evaluations             = 53
Total CPU secs in IPOPT (w/o function evaluations)   =      4.497
Total CPU secs in NLP function evaluations           =      4.247

EXIT: Optimal Solution Found.

 ** SUBROUTINE CUTEST_csetup: Warning. The problem has no general constraints. 
 ** Other tools may be preferable ** 

************************ CUTEst statistics ************************


 Package used            :  IPOPT
 Problem                 :  INDEFM    
 # variables             =          100000
 # constraints           =               0
 # objective functions   =        0.1140000E+03
 # objective gradients   =        0.5500000E+02
 # objective Hessians    =        0.5400000E+02
 # Hessian-vector prdct  =        0.0000000E+00
 # constraints functions =        0.0000000E+00
 # constraints gradients =        0.0000000E+00
 # constraints Hessians  =        0.0000000E+00
 Exit code               =               0
 Final f                 =  -0.1005000E+08
 Set up time             =            0.59 seconds
 Solve time              =           21.11 seconds


******************************************************************

System Time =       6.5240001678 s.
